NAME          ClpDefau
ROWS
 N  OBJROW
 L  R_68_0
 L  R_68_1
 L  R_68_2
 L  R_68_3
 L  R_68_4
 L  R_68_5
 L  R_68_6
 L  R_68_7
 L  R_68_8
 L  R_68_9
 L  R_68_10
 L  R_68_11
 L  R_68_12
 L  R_68_13
 L  R_68_14
 L  R_68_15
COLUMNS
    x_0       OBJROW     -1.           R_68_4    4.          
    x_0       R_68_10   23.            R_68_12   42.         
    x_0       R_68_13   66.         
    x_1       OBJROW     -2.           R_68_1    58.         
    x_1       R_68_10   97.         
    x_2       OBJROW     -2.        
    x_3       OBJROW     -6.        
    x_4       OBJROW     -3.           R_68_0    25.         
    x_4       R_68_2    74.            R_68_7    67.         
    x_4       R_68_8    35.            R_68_14   47.         
    x_5       OBJROW     -5.           R_68_1    15.         
    x_5       R_68_3    94.            R_68_6    21.         
    x_5       R_68_9    76.            R_68_10   32.         
    x_5       R_68_11   5.             R_68_12   79.         
    x_6       OBJROW     -5.           R_68_4    34.         
    x_6       R_68_12   58.         
    x_7       OBJROW     -10.          R_68_12   22.         
    x_7       R_68_13   82.         
    x_8       OBJROW     -4.           R_68_1    32.         
    x_8       R_68_12   5.             R_68_14   66.         
    x_9       OBJROW     -10.          R_68_1    24.         
    x_9       R_68_3    4.             R_68_15   54.         
    x_10      OBJROW     -1.           R_68_5    16.         
    x_10      R_68_10   88.            R_68_12   26.         
    x_10      R_68_15   58.         
    x_11      OBJROW     -10.          R_68_0    82.         
    x_11      R_68_4    37.            R_68_5    40.         
    x_11      R_68_7    97.            R_68_9    48.         
    x_11      R_68_14   16.            R_68_15   79.         
    x_12      OBJROW     -3.           R_68_4    85.         
    x_12      R_68_6    91.         
    x_13      OBJROW     -7.           R_68_11   46.         
    x_13      R_68_12   70.            R_68_13   54.         
    x_14      OBJROW     -7.           R_68_3    38.         
    x_14      R_68_8    37.            R_68_9    70.         
    x_15      OBJROW     -9.           R_68_0    21.         
    x_15      R_68_7    57.            R_68_13   36.         
RHS
    RHS       R_68_0    186.           R_68_1    205.        
    RHS       R_68_2    201.           R_68_3    190.        
    RHS       R_68_4    183.           R_68_5    195.        
    RHS       R_68_6    181.           R_68_7    205.        
    RHS       R_68_8    207.           R_68_9    202.        
    RHS       R_68_10   165.           R_68_11   208.        
    RHS       R_68_12   212.           R_68_13   206.        
    RHS       R_68_14   174.           R_68_15   194.        
BOUNDS
 UI BOUND     x_0       10.         
 UI BOUND     x_1       10.         
 UI BOUND     x_2       10.         
 UI BOUND     x_3       10.         
 UI BOUND     x_4       10.         
 UI BOUND     x_5       10.         
 UI BOUND     x_6       10.         
 UI BOUND     x_7       10.         
 UI BOUND     x_8       10.         
 UI BOUND     x_9       10.         
 UI BOUND     x_10      10.         
 UI BOUND     x_11      10.         
 UI BOUND     x_12      10.         
 UI BOUND     x_13      10.         
 UI BOUND     x_14      10.         
 UI BOUND     x_15      10.         
ENDATA
